Route 1: 45 7 6 8 5 3 1 4 46 2
Route 2: 39 38 44 41 35 43
Route 3: 12 47 15 11 9 10 13 16 17 14
Route 4: 20 23 21 19 49 22 18 48 25 24
Route 5: 42 37 36 40 31 34 50
Route 6: 33 27 30 32 28 26 29
Vehicles: 6
Distance: 776.24
